c File: data_files/evolved_graphs/g3624.col
c
c Auto generated graph
c
p edge 100 1901
e 1 3
e 1 5
e 1 6
e 1 26
e 1 30
e 1 36
e 1 44
e 1 46
e 1 61
e 1 77
e 1 80
e 1 93
e 2 6
e 2 11
e 2 17
e 2 18
e 2 20
e 2 25
e 2 32
e 2 41
e 2 45
e 2 52
e 2 57
e 2 75
e 2 91
e 2 93
e 3 5
e 3 6
e 3 8
e 3 11
e 3 27
e 3 33
e 3 49
e 3 50
e 3 63
e 3 64
e 3 69
e 3 71
e 3 82
e 4 5
e 4 6
e 4 24
e 4 40
e 4 41
e 4 57
e 4 60
e 4 77
e 4 80
e 4 82
e 4 83
e 4 87
e 4 88
e 4 91
e 4 94
e 5 23
e 5 26
e 5 31
e 5 37
e 5 53
e 5 54
e 5 61
e 5 84
e 5 88
e 5 94
e 6 7
e 6 10
e 6 28
e 6 42
e 6 47
e 6 50
e 6 55
e 6 61
e 6 65
e 6 69
e 6 78
e 6 86
e 6 98
e 7 12
e 7 13
e 7 16
e 7 20
e 7 23
e 7 24
e 7 30
e 7 31
e 7 40
e 7 57
e 7 60
e 7 61
e 7 63
e 7 79
e 7 92
e 7 98
e 8 10
e 8 21
e 8 27
e 8 71
e 8 96
e 9 12
e 9 23
e 9 38
e 9 57
e 9 66
e 9 78
e 9 88
e 10 23
e 10 27
e 10 30
e 10 33
e 10 35
e 10 41
e 10 46
e 10 47
e 10 52
e 10 55
e 10 58
e 10 69
e 10 72
e 10 75
e 10 81
e 10 92
e 11 16
e 11 18
e 11 19
e 11 23
e 11 26
e 11 27
e 11 29
e 11 30
e 11 33
e 11 36
e 11 42
e 11 46
e 11 47
e 11 51
e 11 53
e 11 56
e 11 57
e 11 59
e 11 60
e 11 62
e 11 63
e 11 64
e 11 66
e 11 70
e 11 74
e 11 75
e 11 77
e 11 79
e 11 83
e 11 87
e 11 91
e 11 93
e 11 94
e 11 95
e 11 96
e 11 97
e 11 99
e 11 100
e 12 18
e 12 19
e 12 31
e 12 33
e 12 34
e 12 35
e 12 36
e 12 37
e 12 38
e 12 39
e 12 40
e 12 41
e 12 43
e 12 50
e 12 53
e 12 54
e 12 64
e 12 68
e 12 69
e 12 74
e 12 75
e 12 76
e 12 78
e 12 79
e 12 81
e 12 82
e 12 83
e 12 84
e 12 85
e 12 86
e 12 87
e 12 88
e 12 89
e 12 90
e 12 91
e 12 93
e 12 94
e 12 96
e 12 98
e 12 99
e 12 100
e 13 15
e 13 16
e 13 18
e 13 20
e 13 21
e 13 22
e 13 25
e 13 28
e 13 29
e 13 31
e 13 34
e 13 35
e 13 39
e 13 44
e 13 46
e 13 51
e 13 57
e 13 60
e 13 61
e 13 64
e 13 65
e 13 68
e 13 73
e 13 74
e 13 75
e 13 78
e 13 79
e 13 80
e 13 86
e 13 87
e 13 88
e 13 90
e 13 94
e 13 96
e 13 98
e 14 16
e 14 18
e 14 19
e 14 22
e 14 25
e 14 30
e 14 31
e 14 36
e 14 44
e 14 45
e 14 48
e 14 51
e 14 53
e 14 55
e 14 56
e 14 58
e 14 62
e 14 63
e 14 64
e 14 66
e 14 67
e 14 68
e 14 71
e 14 72
e 14 73
e 14 74
e 14 76
e 14 84
e 14 85
e 14 88
e 14 91
e 14 93
e 14 95
e 14 97
e 14 98
e 14 100
e 15 16
e 15 21
e 15 23
e 15 24
e 15 27
e 15 28
e 15 30
e 15 32
e 15 35
e 15 36
e 15 37
e 15 46
e 15 50
e 15 54
e 15 55
e 15 57
e 15 58
e 15 59
e 15 60
e 15 63
e 15 64
e 15 65
e 15 66
e 15 67
e 15 71
e 15 72
e 15 74
e 15 75
e 15 76
e 15 81
e 15 83
e 15 84
e 15 86
e 15 87
e 15 88
e 15 89
e 15 90
e 15 91
e 15 92
e 15 94
e 15 96
e 15 97
e 16 17
e 16 18
e 16 22
e 16 26
e 16 28
e 16 29
e 16 33
e 16 34
e 16 40
e 16 41
e 16 43
e 16 44
e 16 45
e 16 47
e 16 48
e 16 49
e 16 57
e 16 59
e 16 62
e 16 63
e 16 68
e 16 72
e 16 73
e 16 74
e 16 75
e 16 79
e 16 80
e 16 82
e 16 83
e 16 85
e 16 88
e 16 92
e 16 95
e 16 97
e 17 28
e 17 29
e 17 31
e 17 32
e 17 36
e 17 37
e 17 40
e 17 42
e 17 44
e 17 46
e 17 50
e 17 54
e 17 57
e 17 58
e 17 59
e 17 60
e 17 61
e 17 66
e 17 67
e 17 69
e 17 71
e 17 73
e 17 75
e 17 77
e 17 79
e 17 83
e 17 84
e 17 90
e 17 91
e 17 92
e 17 96
e 17 97
e 17 98
e 17 99
e 18 23
e 18 24
e 18 25
e 18 26
e 18 30
e 18 32
e 18 38
e 18 39
e 18 43
e 18 45
e 18 46
e 18 49
e 18 50
e 18 51
e 18 52
e 18 54
e 18 55
e 18 61
e 18 62
e 18 63
e 18 70
e 18 71
e 18 72
e 18 73
e 18 74
e 18 77
e 18 79
e 18 82
e 18 84
e 18 85
e 18 87
e 18 89
e 18 90
e 18 91
e 18 92
e 18 94
e 19 23
e 19 32
e 19 33
e 19 35
e 19 36
e 19 37
e 19 38
e 19 40
e 19 42
e 19 46
e 19 47
e 19 52
e 19 53
e 19 55
e 19 56
e 19 62
e 19 64
e 19 66
e 19 67
e 19 68
e 19 70
e 19 72
e 19 74
e 19 75
e 19 79
e 19 80
e 19 81
e 19 83
e 19 84
e 19 85
e 19 86
e 19 89
e 19 92
e 19 93
e 19 95
e 19 96
e 19 99
e 20 21
e 20 22
e 20 23
e 20 24
e 20 28
e 20 29
e 20 30
e 20 31
e 20 34
e 20 35
e 20 41
e 20 45
e 20 52
e 20 55
e 20 57
e 20 65
e 20 72
e 20 73
e 20 76
e 20 79
e 20 82
e 20 84
e 20 85
e 20 94
e 20 96
e 20 97
e 20 98
e 20 100
e 21 22
e 21 29
e 21 30
e 21 33
e 21 34
e 21 35
e 21 39
e 21 48
e 21 50
e 21 54
e 21 56
e 21 58
e 21 59
e 21 62
e 21 63
e 21 66
e 21 68
e 21 70
e 21 73
e 21 74
e 21 75
e 21 76
e 21 78
e 21 80
e 21 83
e 21 92
e 21 93
e 21 94
e 21 96
e 21 97
e 22 25
e 22 27
e 22 35
e 22 36
e 22 41
e 22 42
e 22 45
e 22 46
e 22 52
e 22 55
e 22 56
e 22 59
e 22 67
e 22 73
e 22 76
e 22 78
e 22 80
e 22 81
e 22 83
e 22 84
e 22 85
e 22 92
e 22 93
e 22 97
e 22 98
e 23 24
e 23 25
e 23 27
e 23 28
e 23 35
e 23 37
e 23 38
e 23 40
e 23 46
e 23 47
e 23 48
e 23 50
e 23 52
e 23 53
e 23 54
e 23 58
e 23 59
e 23 60
e 23 61
e 23 63
e 23 65
e 23 69
e 23 70
e 23 71
e 23 74
e 23 75
e 23 76
e 23 77
e 23 79
e 23 81
e 23 83
e 23 85
e 23 88
e 23 89
e 23 90
e 23 93
e 23 94
e 23 95
e 23 97
e 23 98
e 23 100
e 24 25
e 24 27
e 24 29
e 24 31
e 24 33
e 24 35
e 24 38
e 24 44
e 24 46
e 24 50
e 24 52
e 24 54
e 24 60
e 24 61
e 24 67
e 24 68
e 24 69
e 24 70
e 24 72
e 24 74
e 24 76
e 24 78
e 24 79
e 24 82
e 24 83
e 24 85
e 24 90
e 24 91
e 24 92
e 24 93
e 24 97
e 24 98
e 24 100
e 25 28
e 25 30
e 25 32
e 25 37
e 25 44
e 25 46
e 25 48
e 25 51
e 25 55
e 25 56
e 25 59
e 25 69
e 25 72
e 25 73
e 25 74
e 25 75
e 25 76
e 25 84
e 25 85
e 25 86
e 25 89
e 25 90
e 25 93
e 25 96
e 25 97
e 26 27
e 26 28
e 26 31
e 26 39
e 26 41
e 26 43
e 26 44
e 26 47
e 26 48
e 26 51
e 26 52
e 26 58
e 26 59
e 26 65
e 26 67
e 26 73
e 26 74
e 26 75
e 26 76
e 26 81
e 26 83
e 26 84
e 26 85
e 26 87
e 26 88
e 26 94
e 26 96
e 26 97
e 26 98
e 26 99
e 27 28
e 27 31
e 27 33
e 27 35
e 27 39
e 27 40
e 27 41
e 27 43
e 27 45
e 27 50
e 27 51
e 27 54
e 27 55
e 27 57
e 27 59
e 27 60
e 27 61
e 27 65
e 27 67
e 27 69
e 27 70
e 27 72
e 27 77
e 27 80
e 27 81
e 27 83
e 27 85
e 27 87
e 27 88
e 27 90
e 27 94
e 27 97
e 27 98
e 27 99
e 28 31
e 28 32
e 28 33
e 28 37
e 28 38
e 28 43
e 28 46
e 28 50
e 28 58
e 28 59
e 28 62
e 28 64
e 28 70
e 28 71
e 28 72
e 28 74
e 28 75
e 28 82
e 28 84
e 28 87
e 28 88
e 28 92
e 28 93
e 28 94
e 28 96
e 28 97
e 28 98
e 29 32
e 29 33
e 29 35
e 29 36
e 29 44
e 29 45
e 29 46
e 29 50
e 29 51
e 29 52
e 29 53
e 29 57
e 29 60
e 29 61
e 29 64
e 29 65
e 29 67
e 29 69
e 29 73
e 29 74
e 29 76
e 29 78
e 29 81
e 29 82
e 29 83
e 29 86
e 29 91
e 29 93
e 29 94
e 29 96
e 29 98
e 29 99
e 29 100
e 30 36
e 30 37
e 30 40
e 30 41
e 30 46
e 30 49
e 30 52
e 30 54
e 30 56
e 30 58
e 30 60
e 30 64
e 30 66
e 30 73
e 30 74
e 30 76
e 30 77
e 30 79
e 30 80
e 30 81
e 30 82
e 30 84
e 30 85
e 30 86
e 30 87
e 30 89
e 30 91
e 30 92
e 30 93
e 30 96
e 30 99
e 31 32
e 31 37
e 31 40
e 31 45
e 31 46
e 31 51
e 31 53
e 31 58
e 31 60
e 31 61
e 31 62
e 31 64
e 31 65
e 31 66
e 31 67
e 31 72
e 31 73
e 31 76
e 31 77
e 31 78
e 31 79
e 31 80
e 31 81
e 31 82
e 31 83
e 31 89
e 31 90
e 31 92
e 31 98
e 32 35
e 32 36
e 32 40
e 32 41
e 32 42
e 32 46
e 32 50
e 32 51
e 32 53
e 32 55
e 32 57
e 32 61
e 32 63
e 32 67
e 32 69
e 32 70
e 32 72
e 32 76
e 32 78
e 32 79
e 32 82
e 32 83
e 32 85
e 32 87
e 32 88
e 32 89
e 32 90
e 32 91
e 32 92
e 32 94
e 32 95
e 32 96
e 32 99
e 33 34
e 33 35
e 33 37
e 33 38
e 33 39
e 33 47
e 33 48
e 33 49
e 33 50
e 33 51
e 33 53
e 33 57
e 33 58
e 33 59
e 33 64
e 33 66
e 33 67
e 33 68
e 33 69
e 33 70
e 33 77
e 33 80
e 33 81
e 33 83
e 33 85
e 33 86
e 33 87
e 33 88
e 33 89
e 33 90
e 33 91
e 33 96
e 33 98
e 34 41
e 34 44
e 34 45
e 34 48
e 34 49
e 34 51
e 34 53
e 34 54
e 34 57
e 34 58
e 34 61
e 34 62
e 34 66
e 34 68
e 34 70
e 34 71
e 34 72
e 34 76
e 34 80
e 34 81
e 34 82
e 34 83
e 34 87
e 34 90
e 34 93
e 34 95
e 34 96
e 34 97
e 34 98
e 34 99
e 34 100
e 35 36
e 35 38
e 35 40
e 35 41
e 35 42
e 35 43
e 35 45
e 35 46
e 35 48
e 35 51
e 35 54
e 35 56
e 35 57
e 35 65
e 35 70
e 35 72
e 35 73
e 35 74
e 35 75
e 35 76
e 35 78
e 35 79
e 35 81
e 35 83
e 35 84
e 35 85
e 35 86
e 35 88
e 35 89
e 35 91
e 35 92
e 35 95
e 35 98
e 35 100
e 36 37
e 36 38
e 36 39
e 36 43
e 36 46
e 36 47
e 36 48
e 36 49
e 36 50
e 36 55
e 36 59
e 36 63
e 36 68
e 36 72
e 36 74
e 36 76
e 36 77
e 36 78
e 36 79
e 36 81
e 36 82
e 36 83
e 36 86
e 36 87
e 36 89
e 36 90
e 36 93
e 36 94
e 36 95
e 36 99
e 36 100
e 37 42
e 37 43
e 37 44
e 37 45
e 37 46
e 37 49
e 37 50
e 37 51
e 37 54
e 37 57
e 37 58
e 37 60
e 37 65
e 37 66
e 37 67
e 37 68
e 37 70
e 37 77
e 37 79
e 37 80
e 37 84
e 37 89
e 37 90
e 37 93
e 37 94
e 37 95
e 37 100
e 38 40
e 38 41
e 38 42
e 38 44
e 38 45
e 38 50
e 38 52
e 38 53
e 38 56
e 38 61
e 38 62
e 38 64
e 38 67
e 38 69
e 38 70
e 38 72
e 38 75
e 38 77
e 38 83
e 38 86
e 38 87
e 38 88
e 38 89
e 38 91
e 38 93
e 38 95
e 38 96
e 38 97
e 38 98
e 39 43
e 39 46
e 39 48
e 39 52
e 39 54
e 39 60
e 39 61
e 39 63
e 39 66
e 39 67
e 39 68
e 39 69
e 39 70
e 39 71
e 39 72
e 39 74
e 39 79
e 39 80
e 39 81
e 39 82
e 39 84
e 39 85
e 39 86
e 39 88
e 39 91
e 39 93
e 39 94
e 39 95
e 39 97
e 39 98
e 39 99
e 40 45
e 40 47
e 40 48
e 40 52
e 40 53
e 40 54
e 40 59
e 40 60
e 40 61
e 40 64
e 40 65
e 40 66
e 40 67
e 40 69
e 40 72
e 40 73
e 40 77
e 40 78
e 40 80
e 40 81
e 40 82
e 40 84
e 40 85
e 40 86
e 40 88
e 40 89
e 40 90
e 40 91
e 40 92
e 40 93
e 40 95
e 40 96
e 40 98
e 40 99
e 41 43
e 41 44
e 41 46
e 41 52
e 41 55
e 41 58
e 41 61
e 41 62
e 41 63
e 41 65
e 41 66
e 41 70
e 41 71
e 41 72
e 41 74
e 41 76
e 41 77
e 41 79
e 41 81
e 41 83
e 41 84
e 41 86
e 41 88
e 41 91
e 41 94
e 41 95
e 41 99
e 41 100
e 42 43
e 42 44
e 42 47
e 42 48
e 42 50
e 42 51
e 42 54
e 42 55
e 42 56
e 42 58
e 42 60
e 42 64
e 42 66
e 42 71
e 42 72
e 42 73
e 42 74
e 42 78
e 42 79
e 42 82
e 42 83
e 42 84
e 42 88
e 42 90
e 42 92
e 42 93
e 42 94
e 42 97
e 42 98
e 42 100
e 43 44
e 43 51
e 43 52
e 43 53
e 43 54
e 43 57
e 43 59
e 43 63
e 43 65
e 43 68
e 43 70
e 43 71
e 43 74
e 43 77
e 43 80
e 43 83
e 43 84
e 43 86
e 43 89
e 43 90
e 43 91
e 43 93
e 43 96
e 43 98
e 43 100
e 44 49
e 44 51
e 44 54
e 44 57
e 44 59
e 44 61
e 44 62
e 44 64
e 44 66
e 44 68
e 44 69
e 44 70
e 44 76
e 44 78
e 44 79
e 44 81
e 44 83
e 44 86
e 44 90
e 44 92
e 44 93
e 44 96
e 44 97
e 44 100
e 45 46
e 45 47
e 45 51
e 45 54
e 45 56
e 45 59
e 45 62
e 45 63
e 45 65
e 45 66
e 45 68
e 45 69
e 45 72
e 45 75
e 45 80
e 45 81
e 45 83
e 45 85
e 45 86
e 45 87
e 45 88
e 45 90
e 45 91
e 45 94
e 45 96
e 45 97
e 46 48
e 46 50
e 46 51
e 46 53
e 46 54
e 46 60
e 46 61
e 46 64
e 46 66
e 46 68
e 46 69
e 46 70
e 46 73
e 46 76
e 46 79
e 46 80
e 46 82
e 46 84
e 46 86
e 46 93
e 46 95
e 46 96
e 46 98
e 46 99
e 46 100
e 47 48
e 47 51
e 47 53
e 47 54
e 47 67
e 47 71
e 47 72
e 47 74
e 47 76
e 47 77
e 47 78
e 47 79
e 47 81
e 47 83
e 47 84
e 47 85
e 47 86
e 47 88
e 47 94
e 47 100
e 48 49
e 48 50
e 48 52
e 48 53
e 48 56
e 48 58
e 48 61
e 48 65
e 48 66
e 48 67
e 48 69
e 48 70
e 48 72
e 48 74
e 48 82
e 48 83
e 48 84
e 48 86
e 48 88
e 48 90
e 48 92
e 48 95
e 48 98
e 49 51
e 49 58
e 49 61
e 49 65
e 49 69
e 49 70
e 49 72
e 49 75
e 49 79
e 49 80
e 49 81
e 49 86
e 49 89
e 49 91
e 49 92
e 49 96
e 49 97
e 50 52
e 50 56
e 50 58
e 50 59
e 50 60
e 50 61
e 50 62
e 50 63
e 50 65
e 50 68
e 50 69
e 50 73
e 50 75
e 50 76
e 50 86
e 50 87
e 50 88
e 50 90
e 50 91
e 50 93
e 50 94
e 50 100
e 51 53
e 51 57
e 51 61
e 51 62
e 51 64
e 51 66
e 51 68
e 51 71
e 51 76
e 51 81
e 51 83
e 51 84
e 51 85
e 51 86
e 51 90
e 51 92
e 51 93
e 51 95
e 51 96
e 52 54
e 52 59
e 52 66
e 52 67
e 52 71
e 52 72
e 52 73
e 52 75
e 52 76
e 52 81
e 52 82
e 52 83
e 52 84
e 52 85
e 52 87
e 52 89
e 52 90
e 52 91
e 52 92
e 52 93
e 52 98
e 53 64
e 53 65
e 53 70
e 53 71
e 53 76
e 53 78
e 53 79
e 53 82
e 53 83
e 53 84
e 53 86
e 53 88
e 53 90
e 53 91
e 53 93
e 53 95
e 53 96
e 54 56
e 54 57
e 54 61
e 54 63
e 54 64
e 54 65
e 54 69
e 54 73
e 54 74
e 54 77
e 54 78
e 54 79
e 54 82
e 54 85
e 54 87
e 54 88
e 54 91
e 54 92
e 54 96
e 54 97
e 54 99
e 55 60
e 55 68
e 55 69
e 55 71
e 55 72
e 55 78
e 55 82
e 55 83
e 55 84
e 55 86
e 55 89
e 55 92
e 55 99
e 55 100
e 56 57
e 56 58
e 56 61
e 56 64
e 56 69
e 56 71
e 56 72
e 56 75
e 56 78
e 56 81
e 56 83
e 56 84
e 56 85
e 56 88
e 56 91
e 56 93
e 56 96
e 56 98
e 56 99
e 57 58
e 57 59
e 57 61
e 57 63
e 57 66
e 57 70
e 57 71
e 57 73
e 57 74
e 57 75
e 57 79
e 57 81
e 57 84
e 57 86
e 57 88
e 57 89
e 57 90
e 57 91
e 57 92
e 57 93
e 57 94
e 57 95
e 57 96
e 57 98
e 57 99
e 58 59
e 58 61
e 58 65
e 58 66
e 58 67
e 58 68
e 58 71
e 58 72
e 58 75
e 58 76
e 58 78
e 58 79
e 58 80
e 58 82
e 58 85
e 58 86
e 58 89
e 58 91
e 58 97
e 58 99
e 58 100
e 59 62
e 59 63
e 59 64
e 59 66
e 59 70
e 59 71
e 59 72
e 59 73
e 59 74
e 59 75
e 59 76
e 59 77
e 59 78
e 59 80
e 59 81
e 59 84
e 59 86
e 59 87
e 59 89
e 59 90
e 59 91
e 59 94
e 59 95
e 59 96
e 59 97
e 60 61
e 60 62
e 60 64
e 60 65
e 60 67
e 60 68
e 60 70
e 60 72
e 60 74
e 60 75
e 60 76
e 60 79
e 60 82
e 60 84
e 60 88
e 60 90
e 60 93
e 60 94
e 60 97
e 60 98
e 60 99
e 60 100
e 61 63
e 61 64
e 61 70
e 61 72
e 61 73
e 61 74
e 61 76
e 61 77
e 61 78
e 61 81
e 61 82
e 61 84
e 61 85
e 61 86
e 61 90
e 61 91
e 61 92
e 61 93
e 61 94
e 61 99
e 61 100
e 62 67
e 62 69
e 62 70
e 62 79
e 62 82
e 62 83
e 62 84
e 62 86
e 62 87
e 62 90
e 62 91
e 62 93
e 62 94
e 62 96
e 62 97
e 62 100
e 63 65
e 63 70
e 63 71
e 63 73
e 63 77
e 63 78
e 63 79
e 63 82
e 63 89
e 63 90
e 63 95
e 63 96
e 64 66
e 64 67
e 64 68
e 64 70
e 64 72
e 64 74
e 64 76
e 64 79
e 64 85
e 64 88
e 64 89
e 64 91
e 64 92
e 64 93
e 64 96
e 64 99
e 65 66
e 65 69
e 65 71
e 65 72
e 65 73
e 65 74
e 65 75
e 65 76
e 65 77
e 65 78
e 65 79
e 65 84
e 65 85
e 65 87
e 65 92
e 65 95
e 65 99
e 66 70
e 66 71
e 66 72
e 66 74
e 66 76
e 66 77
e 66 79
e 66 81
e 66 91
e 66 93
e 66 94
e 66 96
e 66 98
e 66 99
e 67 72
e 67 73
e 67 75
e 67 76
e 67 78
e 67 79
e 67 82
e 67 83
e 67 84
e 67 85
e 67 89
e 67 90
e 67 92
e 67 94
e 67 96
e 67 97
e 67 98
e 67 99
e 67 100
e 68 70
e 68 75
e 68 76
e 68 78
e 68 79
e 68 80
e 68 81
e 68 87
e 68 89
e 68 91
e 68 93
e 68 94
e 68 95
e 68 97
e 68 98
e 68 99
e 69 70
e 69 73
e 69 81
e 69 82
e 69 83
e 69 85
e 69 86
e 69 88
e 69 91
e 69 92
e 69 93
e 69 94
e 69 98
e 70 71
e 70 74
e 70 75
e 70 76
e 70 77
e 70 78
e 70 79
e 70 80
e 70 88
e 70 89
e 70 91
e 70 93
e 70 95
e 70 96
e 70 97
e 70 98
e 70 99
e 70 100
e 71 74
e 71 76
e 71 77
e 71 81
e 71 83
e 71 84
e 71 85
e 71 95
e 72 73
e 72 75
e 72 76
e 72 77
e 72 79
e 72 83
e 72 85
e 72 86
e 72 87
e 72 89
e 72 90
e 72 91
e 72 94
e 72 98
e 73 74
e 73 75
e 73 76
e 73 81
e 73 82
e 73 85
e 73 87
e 73 89
e 73 90
e 73 92
e 73 93
e 73 100
e 74 75
e 74 78
e 74 81
e 74 82
e 74 88
e 74 89
e 74 90
e 74 92
e 74 94
e 74 96
e 74 97
e 74 100
e 75 78
e 75 82
e 75 85
e 75 87
e 75 89
e 75 92
e 75 93
e 75 94
e 75 95
e 75 97
e 75 98
e 75 100
e 76 78
e 76 79
e 76 82
e 76 86
e 76 89
e 76 90
e 76 92
e 76 95
e 77 79
e 77 80
e 77 82
e 77 83
e 77 84
e 77 87
e 77 89
e 77 90
e 77 91
e 77 93
e 77 99
e 78 79
e 78 80
e 78 81
e 78 82
e 78 85
e 78 86
e 78 87
e 78 89
e 78 92
e 78 94
e 78 95
e 78 96
e 78 97
e 78 99
e 78 100
e 79 80
e 79 82
e 79 83
e 79 87
e 79 90
e 79 93
e 79 94
e 79 95
e 79 98
e 79 99
e 80 82
e 80 84
e 80 90
e 80 91
e 80 92
e 80 93
e 80 97
e 80 99
e 80 100
e 81 84
e 81 86
e 81 87
e 81 89
e 81 91
e 81 92
e 81 93
e 81 94
e 81 96
e 81 98
e 82 83
e 82 84
e 82 85
e 82 87
e 82 88
e 82 90
e 82 92
e 82 95
e 82 96
e 82 98
e 83 84
e 83 86
e 83 87
e 83 91
e 83 92
e 83 96
e 83 97
e 83 98
e 84 86
e 84 87
e 84 88
e 84 92
e 84 94
e 84 95
e 84 96
e 84 97
e 85 86
e 85 87
e 85 89
e 85 90
e 85 91
e 85 92
e 85 95
e 85 98
e 85 99
e 85 100
e 86 89
e 86 91
e 86 92
e 86 93
e 86 100
e 87 93
e 87 98
e 87 100
e 88 96
e 88 98
e 89 91
e 89 92
e 89 93
e 89 96
e 89 98
e 89 99
e 90 92
e 90 96
e 90 97
e 91 93
e 91 94
e 91 99
e 91 100
e 92 93
e 92 97
e 92 98
e 92 99
e 92 100
e 93 96
e 93 99
e 95 97
e 95 99
e 95 100
e 96 98
e 97 100
